s 1
v -1 -2 -3 4 -5 -6 -7 8 -9 -10 11 -12 -13 -14 15 -16 -17 18 -19 -20 21 -22 -23 -24 0 0 -27 0 -29 -30 0 0 0 -34 0 -36 37 -38 -39 -40 -41 -42 0 0 -45 0 -47 -48 0 0 -51 0 0 -54 0 0 0 0 -59 0 0 0 -63 0 0 0 0 0 0 0 0 -72 0 0 0 -76 -77 0 0 0 0 0 -83 -84 -85 0 0 -88 0 -90 -91 0 0 -94 0 0 -97 0 0 0 0 -102 0 0 0 0 -107 0 0 0 0 0 -113 0 0 0 0 -118 0 -120 0 0 -123 124 -125 -126 127 -128 -129 -130 -131 -132 0 0 0 0 -137 0 0 0 0 -142 0 0 0 0 0 0 0 0 0 0 0 -154 0 -156 0 0 -159 0 -161 0 0 -164 0 0 0 0 -169 0 0 0 0 0 0 0 0 0 0 0 0 0 0 184 -185 -186 -187 -188 -189 -190 0 0 -193 0 0 -196 -197 0 0 -200 -201 0 0 0 0 0 0 0 0 0 0 0 0 0 0 0 0 0 0 0 0 -222 0 224 -225 0 -227 0 0 0 0 0 0 0 0 0 0 0 -239 0 0 0 -243 -244 245 -246 -247 -248 -249 0 0 0 253 -254 -255 -256 -257 -258 -259 0 0 -262 -263 0 0 0 -267 -268 0 0 0 0 0 0 -275 -276 -277 278 -279 0 0 0 0 0 -285 0 0 0 0 0 0 0 0 0 -295 0 0 0 0 -300 0 
t 23ms